c colouring generated by benchmark framework
p edge 77 363
v 1 1
v 2 1
v 3 2
v 4 2
v 5 1
v 6 2
v 7 1
v 8 2
v 9 1
v 10 1
v 11 1
v 12 2
v 13 2
v 14 2
v 15 1
v 16 2
v 17 1
v 18 2
v 19 1
v 20 2
v 21 2
v 22 1
v 23 2
v 24 1
v 25 2
v 26 1
v 27 2
v 28 0
v 29 2
v 30 2
v 31 1
v 32 2
v 33 2
v 34 1
v 35 2
v 36 1
v 37 2
v 38 1
v 39 1
v 40 3
v 41 0
v 42 0
v 43 0
v 44 3
v 45 0
v 46 0
v 47 3
v 48 1
v 49 0
v 50 3
v 51 0
v 52 1
v 53 3
v 54 0
v 55 0
v 56 0
v 57 0
v 58 0
v 59 0
v 60 0
v 61 0
v 62 0
v 63 0
v 64 3
v 65 0
v 66 0
v 67 0
v 68 0
v 69 3
v 70 3
v 71 0
v 72 3
v 73 0
v 74 3
v 75 0
v 76 0
v 77 3
